n = 21;
lu = [|-49, 288
      |155, 418
      |-255, -218
      |-270, -243
      |-268, 245
      |-348, 257
      |281, 334
      |-287, 384
      |-151, 282
      |300, 343
      |-428, 10
      |37, 297
      |-323, 209
      |-413, 88
      |-269, 62
      |315, 424
      |13, 257
      |-130, 70
      |-354, 262
      |-181, 337
      |185, 422|];
